/* Input data */

data;

param E_n := 16;
param P_n := 2;
param D_n := 2;

param h :=
1 10
2 10
;

param KSI := 
1 30
2 10
3 90
4 10
5 10
6 30
7 35
8 40
9 10
10 15
11 50
12 45
13 90
14 25
15 30
16 35
;

# e d p
param delta :=
3,  1, 1    1
4,  1, 1    1
5,  1, 1    1
10, 1, 1    1
12, 1, 1    1
13, 1, 1    1
1,  1, 2    1
7,  1, 2    1
10, 1, 2    1
14, 1, 2    1
8,  2, 1    1
15, 2, 1    1
7,  2, 2    1
10, 2, 2    1
14, 2, 2    1
16, 2, 2    1
;

end;
